Solver command line: ['C:\\Users\\Gabriela Escobar\\anaconda3\\envs\\pyomo_env\\Library\\bin\\glpsol.exe', '--write', 'C:\\Users\\GABRIE~1\\AppData\\Local\\Temp\\tmp3d43nx8n.glpk.raw', '--wglp', 'C:\\Users\\GABRIE~1\\AppData\\Local\\Temp\\tmps19litm4.glpk.glp', '--cpxlp', 'C:\\Users\\GABRIE~1\\AppData\\Local\\Temp\\tmpn8b3c7v8.pyomo.lp']

GLPSOL--GLPK LP/MIP Solver 5.0
Parameter(s) specified in the command line:
 --write C:\Users\GABRIE~1\AppData\Local\Temp\tmp3d43nx8n.glpk.raw --wglp
 C:\Users\GABRIE~1\AppData\Local\Temp\tmps19litm4.glpk.glp --cpxlp C:\Users\GABRIE~1\AppData\Local\Temp\tmpn8b3c7v8.pyomo.lp
Reading problem data from 'C:\Users\GABRIE~1\AppData\Local\Temp\tmpn8b3c7v8.pyomo.lp'...
121 rows, 121 columns, 14401 non-zeros
15012 lines were read
Writing problem data to 'C:\Users\GABRIE~1\AppData\Local\Temp\tmps19litm4.glpk.glp'...
14887 lines were written
GLPK Simplex Optimizer 5.0
121 rows, 121 columns, 14401 non-zeros
Preprocessing...
120 rows, 120 columns, 14400 non-zeros
Scaling...
 A: min|aij| =  1.144e-04  max|aij| =  5.000e+00  ratio =  4.370e+04
GM: min|aij| =  1.096e-02  max|aij| =  9.128e+01  ratio =  8.332e+03
EQ: min|aij| =  1.200e-04  max|aij| =  1.000e+00  ratio =  8.332e+03
Constructing initial basis...
Size of triangular part is 120
*     0: obj =  -0.000000000e+00 inf =   0.000e+00 (120)
*    90: obj =   5.121786456e+02 inf =   0.000e+00 (0)
OPTIMAL LP SOLUTION FOUND
Time used:   0.0 secs
Memory used: 2.4 Mb (2550212 bytes)
Writing basic solution to 'C:\Users\GABRIE~1\AppData\Local\Temp\tmp3d43nx8n.glpk.raw'...
251 lines were written

